(set-info :origin "NTS benchmark converted to SMT-LIB2 using Eldarica (http://lara.epfl.ch/w/eldarica)")
(set-logic HORN)
(declare-fun main_q2 (Int Int Int Int) Bool)
(declare-fun main_qf () Bool)
(declare-fun main_q0 (Int Int Int Int) Bool)
(declare-fun main_q1 (Int Int Int Int) Bool)
(declare-fun half_q3 (Int Int Int Int Int Int) Bool)
(declare-fun half_q4 (Int Int Int Int) Bool)
(declare-fun half_q2 (Int Int Int Int Int Int) Bool)
(declare-fun half_q0 (Int Int Int Int Int Int) Bool)
(declare-fun half_q1 (Int Int Int Int Int Int) Bool)
(assert(forall((?A Int)(?B Int)(?C Int)(?D Int))(=>(and (main_q2 ?A ?B ?C ?D)(= ?C (div ?D 2))) main_qf)))
(assert(not (exists((?A Int)(?B Int)(?C Int)(?D Int))(and (main_q2 ?A ?B ?C ?D)(not (= ?C (div ?D 2)))))))
(assert(forall((?A Int)(?B Int)(?C Int)(?D Int)(?E Int)(?F Int))(=>(and (main_q0 ?A ?B ?E ?F)(>= ?D 0)) (main_q1 ?A ?B ?C ?D))))
(assert(forall((?A Int)(?B Int)(?C Int)(?D Int))(=>(and (= ?A ?C) (= ?B ?D)) (main_q0 ?A ?B ?C ?D))))
(assert(forall((?A Int)(?B Int)(?C Int)(?D Int)(?E Int)(?F Int)(?G Int)(?H Int)(?I Int))(=>(and (half_q3 ?A ?B ?E ?F ?G ?H)(and (= ?C (+ 1 ?H)) (and (= ?G ?D) (= ?H ?I)))) (half_q4 ?A ?B ?C ?D))))
(assert(forall((?A Int)(?B Int)(?C Int)(?D Int)(?E Int)(?F Int)(?G Int)(?H Int)(?I Int))(=>(and (half_q0 ?A ?B ?C ?G ?H ?I)(and (not (< ?H 2)) (and (and (= ?G ?D) (= ?H ?E)) (= ?I ?F)))) (half_q2 ?A ?B ?C ?D ?E ?F))))
(assert(forall((?A Int)(?B Int)(?C Int)(?D Int)(?E Int)(?F Int)(?G Int)(?H Int)(?I Int))(=>(and (half_q1 ?A ?B ?E ?F ?G ?H)(and (= ?C 0) (and (= ?G ?D) (= ?H ?I)))) (half_q4 ?A ?B ?C ?D))))
(assert(forall((?A Int)(?B Int)(?C Int)(?D Int)(?E Int)(?F Int)(?G Int)(?H Int)(?I Int))(=>(and (half_q0 ?A ?B ?C ?G ?H ?I)(and (< ?H 2) (and (and (= ?G ?D) (= ?H ?E)) (= ?I ?F)))) (half_q1 ?A ?B ?C ?D ?E ?F))))
(assert(forall((?A Int)(?B Int)(?C Int)(?D Int)(?E Int)(?F Int)(?G Int)(?H Int)(?I Int)(?J Int)(?K Int)(?L Int)(?M Int))(=>(and (and (and (and (half_q2 ?A ?B ?C ?G ?H ?I)(= ?J (- ?H 2)))(half_q4 ?K ?J ?L ?M))(= ?L ?F))(and (= ?G ?D) (= ?H ?E))) (half_q3 ?A ?B ?C ?D ?E ?F))))
(assert(forall((?A Int)(?B Int)(?C Int)(?D Int)(?E Int)(?F Int)(?G Int)(?H Int)(?I Int)(?J Int)(?K Int)(?L Int))(=>(and (and (half_q2 ?G ?H ?I ?J ?K ?L)(= ?B (- ?K 2)))(and (= ?A ?D) (= ?B ?E))) (half_q0 ?A ?B ?C ?D ?E ?F))))
(assert(forall((?A Int)(?B Int)(?C Int)(?D Int)(?E Int)(?F Int)(?G Int)(?H Int)(?I Int)(?J Int))(=>(and (and (and (and (main_q1 ?A ?B ?E ?F)(= ?G ?F))(half_q4 ?H ?G ?I ?J))(= ?I ?C))(= ?F ?D)) (main_q2 ?A ?B ?C ?D))))
(assert(forall((?A Int)(?B Int)(?C Int)(?D Int)(?E Int)(?F Int)(?G Int)(?H Int)(?I Int)(?J Int))(=>(and (and (main_q1 ?G ?H ?I ?J)(= ?B ?J))(and (= ?A ?D) (= ?B ?E))) (half_q0 ?A ?B ?C ?D ?E ?F))))
(check-sat)
